&CONTROL
   calculation      = 'relax'
   prefix           = 'Fe_NH2_H_paper_480c'
   max_seconds      = 259200
   etot_conv_thr    = 7.34986176e-07
   forc_conv_thr    = 0.0003889379346800142
   disk_io          = 'high'
   pseudo_dir       = '../../SSSP/'
/
&SYSTEM
   ibrav            = 0
   starting_magnetization(1) = 0.1
   starting_magnetization(2) = 0.1
   starting_magnetization(3) = 0.1
   ecutwfc          = 60
   ecutrho          = 480
   nosym            = .true.
   occupations      = 'smearing'
   degauss          = 0.01
   smearing         = 'mp'
   nspin            = 2
   input_dft        = 'pbe'
   starting_ns_eigenvalue(1, 1, 1) = 1.0
   starting_ns_eigenvalue(1, 2, 1) = 1.0
   starting_ns_eigenvalue(2, 1, 1) = 1.0
   starting_ns_eigenvalue(2, 2, 1) = 1.0
   starting_ns_eigenvalue(3, 1, 1) = 1.0
   starting_ns_eigenvalue(3, 2, 1) = 0.0
   starting_ns_eigenvalue(4, 1, 1) = 0.0
   starting_ns_eigenvalue(4, 2, 1) = 0.0
   starting_ns_eigenvalue(5, 1, 1) = 0.0
   starting_ns_eigenvalue(5, 2, 1) = 0.0
   vdw_corr         = 'grimme-d2'
   ntyp             = 3
   nat              = 68
/
&ELECTRONS
   electron_maxstep = 1000
   conv_thr         = 1e-08
   mixing_mode      = 'local-TF'
   mixing_beta      = 0.2
   mixing_ndim      = 10
   diagonalization  = 'david'
   diago_thr_init   = 0.0001
   diago_david_ndim = 4
/
&IONS
/
&CELL
/

ATOMIC_SPECIES
Fe  55.845 Fe.pbe-spn-kjpaw_psl.0.2.1.UPF
N  14.007 N.pbe-n-radius_5.UPF
H  1.008 H.pbe-rrkjus_psl.1.0.0.UPF

K_POINTS automatic
4 4 1  0 0 0

CELL_PARAMETERS angstrom
9.92950018792535 0.00000000000000 0.00000000000000
3.30980029764116 9.36160228367734 0.00000000000000
0.00000000000000 0.00000000000000 26.08059681510041

ATOMIC_POSITIONS angstrom
Fe  1.6549129530 1.1702001330 0.0000000000   0 0 0
Fe  0.0000000000 0.0000000000 2.0269842320   0 0 0
Fe  4.9647388580 3.5106003990 0.0000000000   0 0 0
Fe  3.3098259060 2.3404002660 2.0269842320   0 0 0
Fe  1.6551315130 1.1702558000 4.0268937890  
Fe  3.3101858900 9.3617152740 6.0048122580  
Fe  4.9649540720 3.5106457420 4.0268648000  
Fe  3.3099688780 2.3413737740 6.0045586670  
Fe  2.4823638580 3.5106003990 0.0000000000   0 0 0
Fe  4.1372879530 1.1702001330 0.0000000000   0 0 0
Fe  0.8274509060 2.3404002660 2.0269842320   0 0 0
Fe  2.4823750000 0.0000000000 2.0269842320   0 0 0
Fe  2.4824310220 3.5107845940 4.0263823950  
Fe  4.1374237230 1.1705752050 4.0268440200  
Fe  0.8277939950 2.3406714940 6.0045824830  
Fe  2.4830811940 0.0009146430 6.0049725190  
Fe  6.6196629530 1.1702001330 0.0000000000   0 0 0
Fe  4.9647500000 0.0000000000 2.0269842320   0 0 0
Fe  9.9294888580 3.5106003990 0.0000000000   0 0 0
Fe  8.2745759060 2.3404002660 2.0269842320   0 0 0
Fe  6.6199077770 1.1704550490 4.0270495830  
Fe  4.9652115700 0.0002342070 6.0041315260  
Fe  9.9296087040 3.5107380880 4.0270343070  
Fe  8.2750000210 2.3404787980 6.0043168580  
Fe  7.4471138580 3.5106003990 0.0000000000   0 0 0
Fe  9.1020379530 1.1702001330 0.0000000000   0 0 0
Fe  5.7922009060 2.3404002660 2.0269842320   0 0 0
Fe  7.4471250000 0.0000000000 2.0269842320   0 0 0
Fe  7.4474204790 3.5106115050 4.0266470870  
Fe  9.1023460180 1.1702118820 4.0271344910  
Fe  5.7924014600 2.3408195640 6.0055125480  
Fe  10.7571737750 9.3618315420 6.0045974520  
Fe  3.3098147640 5.8510006640 0.0000000000   0 0 0
Fe  1.6549018110 4.6808005310 2.0269842320   0 0 0
Fe  6.6196406700 8.1914009300 0.0000000000   0 0 0
Fe  4.9647277170 7.0212007970 2.0269842320   0 0 0
Fe  3.3095263360 5.8516908330 4.0267442620  
Fe  11.5846791080 4.6808553490 6.0041447650  
Fe  6.6194996170 8.1922153430 4.0267489080  
Fe  4.9645462320 7.0221482330 6.0052358140  
Fe  4.1372656700 8.1914009300 0.0000000000   0 0 0
Fe  5.7921897640 5.8510006640 0.0000000000   0 0 0
Fe  2.4823527170 7.0212007970 2.0269842320   0 0 0
Fe  4.1372768110 4.6808005310 2.0269842320   0 0 0
Fe  4.1372705760 8.1918451300 4.0268141790  
Fe  5.7920698120 5.8516170640 4.0269464780  
Fe  12.4114097220 7.0212584060 6.0049620080  
Fe  4.1373859690 4.6815609130 6.0040553040  
Fe  8.2745647640 5.8510006640 0.0000000000   0 0 0
Fe  6.6196518110 4.6808005310 2.0269842320   0 0 0
Fe  11.5843906700 8.1914009300 0.0000000000   0 0 0
Fe  9.9294777170 7.0212007970 2.0269842320   0 0 0
Fe  8.2748680940 5.8511267650 4.0268488230  
Fe  6.6196653540 4.6814772220 6.0033800700  
Fe  11.5846785470 8.1915146160 4.0269108000  
Fe  9.9291559000 7.0218373650 6.0045367140  
Fe  9.1020156700 8.1914009300 0.0000000000   0 0 0
Fe  10.7569397640 5.8510006640 0.0000000000   0 0 0
Fe  7.4471027170 7.0212007970 2.0269842320   0 0 0
Fe  9.1020268110 4.6808005310 2.0269842320   0 0 0
Fe  9.1022349640 8.1917148000 4.0263773670  
Fe  10.7569789080 5.8512833720 4.0268380190  
Fe  7.4469975980 7.0218156290 6.0040464570  
Fe  9.1022184680 4.6812057560 6.0054449460  
N  7.4490000000 3.5130000000 7.0055125480  
H  8.0192406068 4.0832406068 7.6431155480  
H  6.8787593932 2.9427593932 7.6431155480  
H 4.5580000000 8.4880000000 6.941998234  

