&CONTROL
   calculation      = 'relax'
   prefix           = 'Fe_NH_H_paper_480c'
   max_seconds      = 259200
   etot_conv_thr    = 7.34986176e-07
   forc_conv_thr    = 0.0003889379346800142
   disk_io          = 'high'
   pseudo_dir       = '../../SSSP/'
/
&SYSTEM
   ibrav            = 0
   starting_magnetization(1) = 0.1
   starting_magnetization(2) = 0.1
   starting_magnetization(3) = 0.1
   ecutwfc          = 60
   ecutrho          = 480
   nosym            = .true.
   occupations      = 'smearing'
   degauss          = 0.01
   smearing         = 'mp'
   nspin            = 2
   input_dft        = 'pbe'
   starting_ns_eigenvalue(1, 1, 1) = 1.0
   starting_ns_eigenvalue(1, 2, 1) = 1.0
   starting_ns_eigenvalue(2, 1, 1) = 1.0
   starting_ns_eigenvalue(2, 2, 1) = 1.0
   starting_ns_eigenvalue(3, 1, 1) = 1.0
   starting_ns_eigenvalue(3, 2, 1) = 0.0
   starting_ns_eigenvalue(4, 1, 1) = 0.0
   starting_ns_eigenvalue(4, 2, 1) = 0.0
   starting_ns_eigenvalue(5, 1, 1) = 0.0
   starting_ns_eigenvalue(5, 2, 1) = 0.0
   vdw_corr         = 'grimme-d2'
   ntyp             = 3
   nat              = 67
/
&ELECTRONS
   electron_maxstep = 1000
   conv_thr         = 1e-08
   mixing_mode      = 'local-TF'
   mixing_beta      = 0.2
   mixing_ndim      = 10
   diagonalization  = 'david'
   diago_thr_init   = 0.0001
   diago_david_ndim = 4
/
&IONS
/
&CELL
/

ATOMIC_SPECIES
Fe  55.845 Fe.pbe-spn-kjpaw_psl.0.2.1.UPF
H  1.008 H.pbe-rrkjus_psl.1.0.0.UPF
N  14.007 N.pbe-n-radius_5.UPF

K_POINTS automatic
4 4 1  0 0 0

CELL_PARAMETERS angstrom
9.92950018792535 0.00000000000000 0.00000000000000
3.30980029764116 9.36160228367734 0.00000000000000
0.00000000000000 0.00000000000000 26.08059681510041

ATOMIC_POSITIONS angstrom
Fe  1.6549129530 1.1702001330 0.0000000000   0 0 0
Fe  0.0000000000 0.0000000000 2.0269842320   0 0 0
Fe  4.9647388580 3.5106003990 0.0000000000   0 0 0
Fe  3.3098259060 2.3404002660 2.0269842320   0 0 0
Fe  1.6746799190 1.1700539490 4.0244111470  
Fe  3.3178017280 9.3512698530 5.9934366260  
Fe  4.9751061780 3.5224982910 4.0404689150  
Fe  3.3643237580 2.3371163750 6.0115705200  
Fe  2.4823638580 3.5106003990 0.0000000000   0 0 0
Fe  4.1372879530 1.1702001330 0.0000000000   0 0 0
Fe  0.8274509060 2.3404002660 2.0269842320   0 0 0
Fe  2.4823750000 0.0000000000 2.0269842320   0 0 0
Fe  2.4823866270 3.5109768490 4.0391633980  
Fe  4.1607464400 1.1873077730 4.0317253720  
Fe  0.8589304880 2.3229894760 5.9968293940  
Fe  2.4952854620 0.0095585530 6.0110736050  
Fe  6.6196629530 1.1702001330 0.0000000000   0 0 0
Fe  4.9647500000 0.0000000000 2.0269842320   0 0 0
Fe  9.9294888580 3.5106003990 0.0000000000   0 0 0
Fe  8.2745759060 2.3404002660 2.0269842320   0 0 0
Fe  6.6339685800 1.1767009940 4.0402344880  
Fe  4.9796314270 0.0534021580 6.0118547850  
Fe  9.9193679340 3.4997419840 4.0402012130  
Fe  8.3611557580 2.2193767550 5.9787679990  
Fe  7.4471138580 3.5106003990 0.0000000000   0 0 0
Fe  9.1020379530 1.1702001330 0.0000000000   0 0 0
Fe  5.7922009060 2.3404002660 2.0269842320   0 0 0
Fe  7.4471250000 0.0000000000 2.0269842320   0 0 0
Fe  7.4473596760 3.5110109640 3.9996105750  
Fe  9.1192046120 1.1465974810 4.0062103600  
Fe  5.8811336850 2.4039695800 6.0512098010  
Fe  10.7639251370 9.3271567840 5.9968401540  
Fe  3.3098147640 5.8510006640 0.0000000000   0 0 0
Fe  1.6549018110 4.6808005310 2.0269842320   0 0 0
Fe  6.6196406700 8.1914009300 0.0000000000   0 0 0
Fe  4.9647277170 7.0212007970 2.0269842320   0 0 0
Fe  3.2903549590 5.8518117660 4.0244573020  
Fe  11.5305618550 4.6852448350 6.0117711780  
Fe  6.6259548510 8.2105233070 4.0244392850  
Fe  4.9571697530 7.0327885540 5.9922352750  
Fe  4.1372656700 8.1914009300 0.0000000000   0 0 0
Fe  5.7921897640 5.8510006640 0.0000000000   0 0 0
Fe  12.4118527170 7.0212007970 2.0269842320   0 0 0
Fe  4.1372768110 4.6808005310 2.0269842320   0 0 0
Fe  4.1372903760 8.1920091460 4.0211487190  
Fe  5.7754662880 5.8753025350 4.0059074590  
Fe  12.3994405330 7.0129101950 6.0109758650  
Fe  4.1061683860 4.6996218180 5.9975262190  
Fe  8.2745647640 5.8510006640 0.0000000000   0 0 0
Fe  6.6196518110 4.6808005310 2.0269842320   0 0 0
Fe  11.5843906700 8.1914009300 0.0000000000   0 0 0
Fe  9.9294777170 7.0212007970 2.0269842320   0 0 0
Fe  8.2606340860 5.8457514950 4.0404909280  
Fe  6.5335663590 4.8040303810 5.9786920730  
Fe  11.5785335100 8.1732295310 4.0243906930  
Fe  9.9154986860 6.9697620470 6.0114495140  
Fe  9.1020156700 8.1914009300 0.0000000000   0 0 0
Fe  10.7569397640 5.8510006640 0.0000000000   0 0 0
Fe  7.4471027170 7.0212007970 2.0269842320   0 0 0
Fe  9.1020268110 4.6808005310 2.0269842320   0 0 0
Fe  9.1022942440 8.1920847100 4.0391682670  
Fe  10.7337567190 5.8350686830 4.0317262770  
Fe  7.4407622060 7.0579721580 5.9975146180  
Fe  9.0143312830 4.6193304830 6.0510152490  
H  7.4490482100 3.5135242380 8.0261332710  
N  7.4489232640 3.5129496640 6.9978748770  
H  4.5500000000 8.4990000000 6.941998234

