phonons (vibrational modes) for Fe-NH2
 &inputph
  outdir='./'
  prefix='Fe_NH2_paper_480c_ESM_std'
  amass(1)=55.845
  amass(2)=14.0067
  amass(3)=1.00784
  nat_todo=3
  alpha_mix(1)=0.2
  nogg=.true.
  reduce_io=.true.
  fildyn='Fe_NH2.dync'
  trans=.true.
 /
0.0 0.0 0.0
65 66 67