&CONTROL
   calculation      = 'relax'
   prefix           = 'Fe_NH3_paper_480c_ESM_p25'
   max_seconds      = 259200
   etot_conv_thr    = 7.34986176e-07
   forc_conv_thr    = 0.0003889379346800142
   disk_io          = 'high'
   pseudo_dir       = '../../SSSP/'
   !restart_mode     = 'restart'
/
&SYSTEM
   ibrav            = 0
   starting_magnetization(1) = 0.1
   starting_magnetization(2) = 0.1
   starting_magnetization(3) = 0.1
   ecutwfc          = 60
   ecutrho          = 480
   nosym            = .true.
   occupations      = 'smearing'
   degauss          = 0.01
   smearing         = 'mp'
   nspin            = 2
   input_dft        = 'pbe'
   starting_ns_eigenvalue(1, 1, 1) = 1.0
   starting_ns_eigenvalue(1, 2, 1) = 1.0
   starting_ns_eigenvalue(2, 1, 1) = 1.0
   starting_ns_eigenvalue(2, 2, 1) = 1.0
   starting_ns_eigenvalue(3, 1, 1) = 1.0
   starting_ns_eigenvalue(3, 2, 1) = 0.0
   starting_ns_eigenvalue(4, 1, 1) = 0.0
   starting_ns_eigenvalue(4, 2, 1) = 0.0
   starting_ns_eigenvalue(5, 1, 1) = 0.0
   starting_ns_eigenvalue(5, 2, 1) = 0.0
   assume_isolated  = 'esm'
   esm_bc           = 'bc2'
   esm_efield       = 0.0097234527
   vdw_corr         = 'grimme-d2'
   ntyp             = 3
   nat              = 68
/
&ELECTRONS
   electron_maxstep = 1000
   conv_thr         = 1e-08
   mixing_mode      = 'local-TF'
   mixing_beta      = 0.2
   mixing_ndim      = 10
   diagonalization  = 'david'
   diago_thr_init   = 0.0001
   diago_david_ndim = 4
/
&IONS
/
&CELL
/

ATOMIC_SPECIES
Fe  55.845 Fe.pbe-spn-kjpaw_psl.0.2.1.UPF
N  14.007 N.pbe-n-radius_5.UPF
H  1.008 H.pbe-rrkjus_psl.1.0.0.UPF


K_POINTS automatic
4 4 1  0 0 0

CELL_PARAMETERS angstrom
9.92950000000000 0.00000000000000 0.00000000000000
3.30980362277934 9.36160106282770 0.00000000000000
0.00000000000000 0.00000000000000 26.08060000000000

ATOMIC_POSITIONS angstrom
Fe       1.654912953   1.170200133   0.000000000    0   0   0
Fe       0.000000000   0.000000000   2.026984232    0   0   0
Fe       4.964738858   3.510600399   0.000000000    0   0   0
Fe       3.309825906   2.340400266   2.026984232    0   0   0
Fe       1.656607402   1.171347598   4.027541413
Fe       3.310443913   9.362006040   6.000727317
Fe       4.969970160   3.514455793   4.020962950
Fe       3.310799975   2.341393181   5.998613359
Fe       2.482363858   3.510600399   0.000000000    0   0   0
Fe       4.137287953   1.170200133   0.000000000    0   0   0
Fe       0.827450906   2.340400266   2.026984232    0   0   0
Fe       2.482375000   0.000000000   2.026984232    0   0   0
Fe       2.482675658   3.512042811   4.027444142
Fe       4.138805386   1.170327576   4.027561656
Fe       0.827483088   2.344915374   6.012274438
Fe       2.486667834  -0.001428807   6.012433494
Fe       6.619662953   1.170200133   0.000000000    0   0   0
Fe       4.964750000   0.000000000   2.026984232    0   0   0
Fe       9.929488858   3.510600399   0.000000000    0   0   0
Fe       8.274575906   2.340400266   2.026984232    0   0   0
Fe       6.622219402   1.168030244   4.017212374
Fe       4.964506842  -0.000899268   6.022982277
Fe       9.930534047   3.507515053   4.017560717
Fe       8.281832912   2.330550484   5.954230855
Fe       7.447113858   3.510600399   0.000000000    0   0   0
Fe       9.102037953   1.170200133   0.000000000    0   0   0
Fe       5.792200906   2.340400266   2.026984232    0   0   0
Fe       7.447125000   0.000000000   2.026984232    0   0   0
Fe       7.435003035   3.527518695   4.037114599
Fe       9.106219054   1.164700568   4.013519910
Fe       5.795536831   2.331695692   5.971316314
Fe      10.752775666   9.362107022   6.010938505
Fe       3.309814764   5.851000664   0.000000000    0   0   0
Fe       1.654901811   4.680800531   2.026984232    0   0   0
Fe       6.619640670   8.191400930   0.000000000    0   0   0
Fe       4.964727717   7.021200797   2.026984232    0   0   0
Fe       3.308328838   5.854550699   4.016981809
Fe      11.583220376   4.680741710   6.022978246
Fe       6.616828226   8.193845746   4.017361256
Fe       4.958259563   7.030941898   5.955838865
Fe       4.137265670   8.191400930   0.000000000    0   0   0
Fe       5.792189764   5.851000664   0.000000000    0   0   0
Fe       2.482352717   7.021200797   2.026984232    0   0   0
Fe       4.137276811   4.680800531   2.026984232    0   0   0
Fe       4.133434555   8.197266263   4.013730546
Fe       5.803797720   5.834413498   4.036874847
Fe      12.411006454   7.017170553   6.011015953
Fe       4.129057426   4.687233042   5.970293325
Fe       8.274564764   5.851000664   0.000000000    0   0   0
Fe       6.619651811   4.680800531   2.026984232    0   0   0
Fe      11.584390670   8.191400930   0.000000000    0   0   0
Fe       9.929477717   7.021200797   2.026984232    0   0   0
Fe       8.269399273   5.847463021   4.022122847
Fe       6.617129842   4.681740965   6.159626657
Fe      11.582865729   8.190289100   4.026779391
Fe       9.929178672   7.021238937   5.996620475
Fe       9.102015670   8.191400930   0.000000000    0   0   0
Fe      10.756939764   5.851000664   0.000000000    0   0   0
Fe       7.447102717   7.021200797   2.026984232    0   0   0
Fe       9.102026811   4.680800531   2.026984232    0   0   0
Fe       9.100248645   8.191479103   4.027066767
Fe      10.756119878   5.849336710   4.027200888
Fe       7.442943887   7.029947747   5.972976768
Fe       9.107810208   4.674065217   5.974054065
N        6.623912568   4.679554852   8.236083304
H        6.602424169   5.634910876   8.601347620
H        5.795734167   4.183680868   8.577082227
H        7.456264738   4.205839374   8.595790014

