&CONTROL
   calculation      = 'relax'
   prefix           = 'Fe_H_paper_480c_ESM_pn25'
   max_seconds      = 259200
   etot_conv_thr    = 7.34986176e-07
   forc_conv_thr    = 0.0003889379346800142
   disk_io          = 'high'
   pseudo_dir       = '../../SSSP/'
   !restart_mode     = 'restart'
/
&SYSTEM
   ibrav            = 0
   starting_magnetization(1) = 0.1
   starting_magnetization(2) = 0.1
   ecutwfc          = 60
   ecutrho          = 480
   nosym            = .true.
   occupations      = 'smearing'
   degauss          = 0.01
   smearing         = 'mp'
   nspin            = 2
   input_dft        = 'pbe'
   starting_ns_eigenvalue(1, 1, 1) = 1.0
   starting_ns_eigenvalue(1, 2, 1) = 1.0
   starting_ns_eigenvalue(2, 1, 1) = 1.0
   starting_ns_eigenvalue(2, 2, 1) = 1.0
   starting_ns_eigenvalue(3, 1, 1) = 1.0
   starting_ns_eigenvalue(3, 2, 1) = 0.0
   starting_ns_eigenvalue(4, 1, 1) = 0.0
   starting_ns_eigenvalue(4, 2, 1) = 0.0
   starting_ns_eigenvalue(5, 1, 1) = 0.0
   starting_ns_eigenvalue(5, 2, 1) = 0.0
   assume_isolated  = 'esm'
   esm_bc           = 'bc2'
   esm_efield       = -0.0097234527
   vdw_corr         = 'grimme-d2'
   ntyp             = 2
   nat              = 65
/
&ELECTRONS
   electron_maxstep = 1000
   conv_thr         = 1e-08
   mixing_mode      = 'local-TF'
   mixing_beta      = 0.2
   mixing_ndim      = 10
   diagonalization  = 'david'
   diago_thr_init   = 0.0001
   diago_david_ndim = 4
/
&IONS
/
&CELL
/

ATOMIC_SPECIES
Fe  55.845 Fe.pbe-spn-kjpaw_psl.0.2.1.UPF
H  1.008 H.pbe-rrkjus_psl.1.0.0.UPF

K_POINTS automatic
4 4 1  0 0 0

CELL_PARAMETERS angstrom
9.92950000000000 0.00000000000000 0.00000000000000
3.30980362277934 9.36160106282770 0.00000000000000
0.00000000000000 0.00000000000000 26.08060000000000

ATOMIC_POSITIONS angstrom
Fe       1.654912953   1.170200133   0.000000000    0   0   0
Fe       0.000000000   0.000000000   2.026984232    0   0   0
Fe       4.964738858   3.510600399   0.000000000    0   0   0
Fe       3.309825906   2.340400266   2.026984232    0   0   0
Fe       1.650445154   1.168492614   4.026683079
Fe       3.304201718   9.369005408   6.007562406
Fe       4.962664720   3.509330591   4.029193226
Fe       3.299603850   2.340219757   6.001367506
Fe       2.482363858   3.510600399   0.000000000    0   0   0
Fe       4.137287953   1.170200133   0.000000000    0   0   0
Fe       0.827450906   2.340400266   2.026984232    0   0   0
Fe       2.482375000   0.000000000   2.026984232    0   0   0
Fe       2.480786837   3.510787823   4.027610032
Fe       4.134586534   1.168811350   4.027376428
Fe       0.825303932   2.342227202   6.005969527
Fe       2.475908492  -0.003691555   6.010395422
Fe       6.619662953   1.170200133   0.000000000    0   0   0
Fe       4.964750000   0.000000000   2.026984232    0   0   0
Fe       9.929488858   3.510600399   0.000000000    0   0   0
Fe       8.274575906   2.340400266   2.026984232    0   0   0
Fe       6.617424349   1.169245869   4.029174060
Fe       4.960335333  -0.008553365   6.001093745
Fe       9.930598003   3.512338332   4.025574211
Fe       8.274265421   2.343850554   6.010817821
Fe       7.447113858   3.510600399   0.000000000    0   0   0
Fe       9.102037953   1.170200133   0.000000000    0   0   0
Fe       5.792200906   2.340400266   2.026984232    0   0   0
Fe       7.447125000   0.000000000   2.026984232    0   0   0
Fe       7.445262405   3.509363629   4.020313366
Fe       9.096855440   1.174228818   4.032846641
Fe       5.775513752   2.329494669   6.005030377
Fe      10.759515796   9.366855804   6.006034148
Fe       3.309814764   5.851000664   0.000000000    0   0   0
Fe       1.654901811   4.680800531   2.026984232    0   0   0
Fe       6.619640670   8.191400930   0.000000000    0   0   0
Fe       4.964727717   7.021200797   2.026984232    0   0   0
Fe       3.311523158   5.851937217   4.027507556
Fe      11.581338810   4.686102916   6.003212986
Fe       6.616241329   8.188501679   4.026849997
Fe       4.968638124   7.014903936   6.008361664
Fe       4.137265670   8.191400930   0.000000000    0   0   0
Fe       5.792189764   5.851000664   0.000000000    0   0   0
Fe       2.482352717   7.021200797   2.026984232    0   0   0
Fe       4.137276811   4.680800531   2.026984232    0   0   0
Fe       4.136018996   8.191092750   4.028820905
Fe       5.793557867   5.845681319   4.032866108
Fe      12.415837710   7.025244173   6.006294327
Fe       4.142225602   4.682714013   6.006135275
Fe       8.274564764   5.851000664   0.000000000    0   0   0
Fe       6.619651811   4.680800531   2.026984232    0   0   0
Fe      11.584390670   8.191400930   0.000000000    0   0   0
Fe       9.929477717   7.021200797   2.026984232    0   0   0
Fe       8.276149697   5.852054699   4.025726474
Fe       6.621971879   4.680376467   6.009961993
Fe      11.585420155   8.193744931   4.027373356
Fe       9.932520005   7.017764446   6.003452120
Fe       9.102015670   8.191400930   0.000000000    0   0   0
Fe      10.756939764   5.851000664   0.000000000    0   0   0
Fe       7.447102717   7.021200797   2.026984232    0   0   0
Fe       9.102026811   4.680800531   2.026984232    0   0   0
Fe       9.101405710   8.190555026   4.027602003
Fe      10.757609444   5.852034508   4.027700685
Fe       7.447100540   7.019657311   6.006696780
Fe       9.104692097   4.683444741   6.000584010
H        7.867469615   3.809713726   6.941998234  

