phonons (vibrational modes) for N2
 &inputph
  outdir='./'
  prefix='N2'
  amass(1)=14.0067
  fildyn='N2.dync'
  trans=.true.
 /
0.0 0.0 0.0