&CONTROL
   calculation      = 'relax'
   prefix           = 'Fe_N_H_paper_480c_ESM_std'
   max_seconds      = 172800
   etot_conv_thr    = 7.34986176e-07
   forc_conv_thr    = 0.0003889379346800142
   disk_io          = 'high'
   pseudo_dir       = '../../SSSP/'
   !restart_mode     = 'restart'
/
&SYSTEM
   ibrav            = 0
   starting_magnetization(1) = 0.1
   starting_magnetization(2) = 0.1
   starting_magnetization(3) = 0.1
   ecutwfc          = 60
   ecutrho          = 480
   nosym            = .true.
   occupations      = 'smearing'
   degauss          = 0.01
   smearing         = 'mp'
   nspin            = 2
   input_dft        = 'pbe'
   starting_ns_eigenvalue(1, 1, 1) = 1.0
   starting_ns_eigenvalue(1, 2, 1) = 1.0
   starting_ns_eigenvalue(2, 1, 1) = 1.0
   starting_ns_eigenvalue(2, 2, 1) = 1.0
   starting_ns_eigenvalue(3, 1, 1) = 1.0
   starting_ns_eigenvalue(3, 2, 1) = 0.0
   starting_ns_eigenvalue(4, 1, 1) = 0.0
   starting_ns_eigenvalue(4, 2, 1) = 0.0
   starting_ns_eigenvalue(5, 1, 1) = 0.0
   starting_ns_eigenvalue(5, 2, 1) = 0.0
   assume_isolated  = 'esm'
   esm_bc           = 'bc2'
   esm_efield       = 0.001956077
   vdw_corr         = 'grimme-d2'
   ntyp             = 3
   nat              = 66
/
&ELECTRONS
   electron_maxstep = 1000
   conv_thr         = 1e-08
   mixing_mode      = 'local-TF'
   mixing_beta      = 0.2
   mixing_ndim      = 10
   diagonalization  = 'david'
   diago_thr_init   = 0.0001
   diago_david_ndim = 4
/
&IONS
/
&CELL
/

ATOMIC_SPECIES
Fe  55.845 Fe.pbe-spn-kjpaw_psl.0.2.1.UPF
N  14.007 N.pbe-n-radius_5.UPF
H  1.008 H.pbe-rrkjus_psl.1.0.0.UPF


K_POINTS automatic
4 4 1  0 0 0

CELL_PARAMETERS angstrom
9.92950000000000 0.00000000000000 0.00000000000000
3.30980362277934 9.36160106282770 0.00000000000000
0.00000000000000 0.00000000000000 26.08060000000000

ATOMIC_POSITIONS angstrom
Fe       1.654912953   1.170200133   0.000000000    0   0   0
Fe       0.000000000   0.000000000   2.026984232    0   0   0
Fe       4.964738858   3.510600399   0.000000000    0   0   0
Fe       3.309825906   2.340400266   2.026984232    0   0   0
Fe       1.680378438   1.166552972   4.026651122
Fe       3.334753161   9.326401447   6.022809758
Fe       4.959762987   3.535076708   4.043961924
Fe       3.395180004   2.335326321   6.026234318
Fe       2.482363858   3.510600399   0.000000000    0   0   0
Fe       4.137287953   1.170200133   0.000000000    0   0   0
Fe       0.827450906   2.340400266   2.026984232    0   0   0
Fe       2.482375000   0.000000000   2.026984232    0   0   0
Fe       2.482824022   3.509619238   4.048700480
Fe       4.161023798   1.187230109   4.032511818
Fe       0.916093585   2.304367799   6.025040658
Fe       2.511703937   0.020699218   6.022077235
Fe       6.619662953   1.170200133   0.000000000    0   0   0
Fe       4.964750000   0.000000000   2.026984232    0   0   0
Fe       9.929488858   3.510600399   0.000000000    0   0   0
Fe       8.274575906   2.340400266   2.026984232    0   0   0
Fe       6.640796866   1.157092072   4.043616295
Fe       4.988317853   0.082087340   6.026415650
Fe       9.932629132   3.484965513   4.040910238
Fe       8.457098655   2.082068801   5.986550927
Fe       7.447113858   3.510600399   0.000000000    0   0   0
Fe       9.102037953   1.170200133   0.000000000    0   0   0
Fe       5.792200906   2.340400266   2.026984232    0   0   0
Fe       7.447125000   0.000000000   2.026984232    0   0   0
Fe       7.446152203   3.509491140   4.059478280
Fe       9.131019902   1.126200848   4.004481936
Fe       5.882655382   2.403722928   6.008039493
Fe      10.769623181   9.266586043   6.031239487
Fe       3.309814764   5.851000664   0.000000000    0   0   0
Fe       1.654901811   4.680800531   2.026984232    0   0   0
Fe       6.619640670   8.191400930   0.000000000    0   0   0
Fe       4.964727717   7.021200797   2.026984232    0   0   0
Fe       3.284007049   5.853545097   4.030304653
Fe      11.502379935   4.676075179   6.022250208
Fe       6.624732871   8.216553197   4.026834699
Fe       4.939853024   7.056277960   6.023194843
Fe       4.137265670   8.191400930   0.000000000    0   0   0
Fe       5.792189764   5.851000664   0.000000000    0   0   0
Fe       2.482352717   7.021200797   2.026984232    0   0   0
Fe       4.137276811   4.680800531   2.026984232    0   0   0
Fe       4.135738670   8.190318371   4.012842071
Fe       5.760274172   5.893055175   4.004722851
Fe      12.369008507   6.990883997   6.026196264
Fe       4.052158610   4.724629132   6.031768227
Fe       8.274564764   5.851000664   0.000000000    0   0   0
Fe       6.619651811   4.680800531   2.026984232    0   0   0
Fe      11.584390670   8.191400930   0.000000000    0   0   0
Fe       9.929477717   7.021200797   2.026984232    0   0   0
Fe       8.251116226   5.862260223   4.041240385
Fe       6.437291900   4.938394453   5.986537645
Fe      11.578245610   8.166135150   4.030125600
Fe       9.897317533   6.945671192   6.021948816
Fe       9.102015670   8.191400930   0.000000000    0   0   0
Fe      10.756939764   5.851000664   0.000000000    0   0   0
Fe       7.447102717   7.021200797   2.026984232    0   0   0
Fe       9.102026811   4.680800531   2.026984232    0   0   0
Fe       9.101135418   8.192051278   4.048618393
Fe      10.731067762   5.832948256   4.030919824
Fe       7.442122409   7.116598751   6.025529393
Fe       9.013214613   4.617472229   6.006713399
N        7.448198864   3.510950522   6.351669108
H        4.600514664   8.519035290   6.976251645 

