&CONTROL
   calculation      = 'relax'
   prefix           = 'Fe_N_H_paper_480c_ESM_pn5'
   max_seconds      = 259200
   etot_conv_thr    = 7.34986176e-07
   forc_conv_thr    = 0.0003889379346800142
   disk_io          = 'high'
   pseudo_dir       = '../../SSSP/'
   !restart_mode     = 'restart'
/
&SYSTEM
   ibrav            = 0
   starting_magnetization(1) = 0.1
   starting_magnetization(2) = 0.1
   starting_magnetization(3) = 0.1
   ecutwfc          = 60
   ecutrho          = 480
   nosym            = .true.
   occupations      = 'smearing'
   degauss          = 0.01
   smearing         = 'mp'
   nspin            = 2
   input_dft        = 'pbe'
   starting_ns_eigenvalue(1, 1, 1) = 1.0
   starting_ns_eigenvalue(1, 2, 1) = 1.0
   starting_ns_eigenvalue(2, 1, 1) = 1.0
   starting_ns_eigenvalue(2, 2, 1) = 1.0
   starting_ns_eigenvalue(3, 1, 1) = 1.0
   starting_ns_eigenvalue(3, 2, 1) = 0.0
   starting_ns_eigenvalue(4, 1, 1) = 0.0
   starting_ns_eigenvalue(4, 2, 1) = 0.0
   starting_ns_eigenvalue(5, 1, 1) = 0.0
   starting_ns_eigenvalue(5, 2, 1) = 0.0
   assume_isolated  = 'esm'
   esm_bc           = 'bc2'
   esm_efield       = -0.0194469054
   vdw_corr         = 'grimme-d2'
   ntyp             = 3
   nat              = 66
/
&ELECTRONS
   electron_maxstep = 1000
   conv_thr         = 1e-08
   mixing_mode      = 'local-TF'
   mixing_beta      = 0.2
   mixing_ndim      = 10
   diagonalization  = 'david'
   diago_thr_init   = 0.0001
   diago_david_ndim = 4
/
&IONS
/
&CELL
/

ATOMIC_SPECIES
Fe  55.845 Fe.pbe-spn-kjpaw_psl.0.2.1.UPF
N  14.007 N.pbe-n-radius_5.UPF
H  1.008 H.pbe-rrkjus_psl.1.0.0.UPF


K_POINTS automatic
4 4 1  0 0 0

CELL_PARAMETERS angstrom
9.92950000000000 0.00000000000000 0.00000000000000
3.30980362277934 9.36160106282770 0.00000000000000
0.00000000000000 0.00000000000000 26.08060000000000

ATOMIC_POSITIONS angstrom
Fe       1.654912953   1.170200133   0.000000000    0   0   0
Fe       0.000000000   0.000000000   2.026984232    0   0   0
Fe       4.964738858   3.510600399   0.000000000    0   0   0
Fe       3.309825906   2.340400266   2.026984232    0   0   0
Fe       1.679526763   1.167093211   4.026201968
Fe       3.335619523   9.326848379   6.017188364
Fe       4.959608310   3.535219285   4.043023967
Fe       3.393832505   2.334893145   6.022431305
Fe       2.482363858   3.510600399   0.000000000    0   0   0
Fe       4.137287953   1.170200133   0.000000000    0   0   0
Fe       0.827450906   2.340400266   2.026984232    0   0   0
Fe       2.482375000   0.000000000   2.026984232    0   0   0
Fe       2.482734550   3.509609673   4.048838306
Fe       4.160670968   1.186912143   4.031868992
Fe       0.912669523   2.302140754   6.027362897
Fe       2.508702269   0.018703157   6.017524866
Fe       6.619662953   1.170200133   0.000000000    0   0   0
Fe       4.964750000   0.000000000   2.026984232    0   0   0
Fe       9.929488858   3.510600399   0.000000000    0   0   0
Fe       8.274575906   2.340400266   2.026984232    0   0   0
Fe       6.640971716   1.156958453   4.042746254
Fe       4.987375545   0.080905937   6.022547506
Fe       9.933237676   3.484573387   4.039812441
Fe       8.457907298   2.081491841   5.979904884
Fe       7.447113858   3.510600399   0.000000000    0   0   0
Fe       9.102037953   1.170200133   0.000000000    0   0   0
Fe       5.792200906   2.340400266   2.026984232    0   0   0
Fe       7.447125000   0.000000000   2.026984232    0   0   0
Fe       7.446449658   3.509706175   4.058561166
Fe       9.131282463   1.125965222   4.000701695
Fe       5.881940137   2.403264813   6.003501260
Fe      10.772145194   9.268673803   6.031716932
Fe       3.309814764   5.851000664   0.000000000    0   0   0
Fe       1.654901811   4.680800531   2.026984232    0   0   0
Fe       6.619640670   8.191400930   0.000000000    0   0   0
Fe       4.964727717   7.021200797   2.026984232    0   0   0
Fe       3.284492045   5.853324502   4.030480264
Fe      11.502523976   4.675228994   6.019713860
Fe       6.625012258   8.215557422   4.026391284
Fe       4.940580309   7.057059055   6.017848365
Fe       4.137265670   8.191400930   0.000000000    0   0   0
Fe       5.792189764   5.851000664   0.000000000    0   0   0
Fe       2.482352717   7.021200797   2.026984232    0   0   0
Fe       4.137276811   4.680800531   2.026984232    0   0   0
Fe       4.135902171   8.190389481   4.009870487
Fe       5.760087832   5.893433410   4.000912418
Fe      12.371715227   6.992786503   6.024648270
Fe       4.055093829   4.726352940   6.032012404
Fe       8.274564764   5.851000664   0.000000000    0   0   0
Fe       6.619651811   4.680800531   2.026984232    0   0   0
Fe      11.584390670   8.191400930   0.000000000    0   0   0
Fe       9.929477717   7.021200797   2.026984232    0   0   0
Fe       8.251048680   5.862945813   4.040039473
Fe       6.437093282   4.939212617   5.979631314
Fe      11.578245651   8.166715318   4.030324647
Fe       9.896703509   6.945831600   6.019243834
Fe       9.102015670   8.191400930   0.000000000    0   0   0
Fe      10.756939764   5.851000664   0.000000000    0   0   0
Fe       7.447102717   7.021200797   2.026984232    0   0   0
Fe       9.102026811   4.680800531   2.026984232    0   0   0
Fe       9.101209356   8.192032939   4.048806193
Fe      10.731384245   5.833050372   4.031234252
Fe       7.438978364   7.113915868   6.027705474
Fe       9.013672044   4.617777028   6.002047235
N        7.448222789   3.510909588   6.333471881
H        4.597203058   8.516955986   6.970981378 

