&CONTROL
   calculation      = 'relax'
   prefix           = 'Fe_NH2_H_paper_480c_ESM_pn5'
   max_seconds      = 259200
   etot_conv_thr    = 7.34986176e-07
   forc_conv_thr    = 0.0003889379346800142
   disk_io          = 'high'
   pseudo_dir       = '../../SSSP/'
   !restart_mode     = 'restart'
/
&SYSTEM
   ibrav            = 0
   starting_magnetization(1) = 0.1
   starting_magnetization(2) = 0.1
   starting_magnetization(3) = 0.1
   ecutwfc          = 60
   ecutrho          = 480
   nosym            = .true.
   occupations      = 'smearing'
   degauss          = 0.01
   smearing         = 'mp'
   nspin            = 2
   input_dft        = 'pbe'
   starting_ns_eigenvalue(1, 1, 1) = 1.0
   starting_ns_eigenvalue(1, 2, 1) = 1.0
   starting_ns_eigenvalue(2, 1, 1) = 1.0
   starting_ns_eigenvalue(2, 2, 1) = 1.0
   starting_ns_eigenvalue(3, 1, 1) = 1.0
   starting_ns_eigenvalue(3, 2, 1) = 0.0
   starting_ns_eigenvalue(4, 1, 1) = 0.0
   starting_ns_eigenvalue(4, 2, 1) = 0.0
   starting_ns_eigenvalue(5, 1, 1) = 0.0
   starting_ns_eigenvalue(5, 2, 1) = 0.0
   assume_isolated  = 'esm'
   esm_bc           = 'bc2'
   esm_efield       = -0.0194469054
   vdw_corr         = 'grimme-d2'
   ntyp             = 3
   nat              = 68
/
&ELECTRONS
   electron_maxstep = 1000
   conv_thr         = 1e-08
   mixing_mode      = 'local-TF'
   mixing_beta      = 0.2
   mixing_ndim      = 10
   diagonalization  = 'david'
   diago_thr_init   = 0.0001
   diago_david_ndim = 4
/
&IONS
/
&CELL
/

ATOMIC_SPECIES
Fe  55.845 Fe.pbe-spn-kjpaw_psl.0.2.1.UPF
N  14.007 N.pbe-n-radius_5.UPF
H  1.008 H.pbe-rrkjus_psl.1.0.0.UPF


K_POINTS automatic
4 4 1  0 0 0

CELL_PARAMETERS angstrom
9.92950000000000 0.00000000000000 0.00000000000000
3.30980362277934 9.36160106282770 0.00000000000000
0.00000000000000 0.00000000000000 26.08060000000000

ATOMIC_POSITIONS angstrom
Fe       1.654912953   1.170200133   0.000000000    0   0   0
Fe       0.000000000   0.000000000   2.026984232    0   0   0
Fe       4.964738858   3.510600399   0.000000000    0   0   0
Fe       3.309825906   2.340400266   2.026984232    0   0   0
Fe       1.650141956   1.168512070   4.022266909
Fe       3.308002933   9.373618884   6.012785980
Fe       4.961903616   3.517002090   4.012894915
Fe       3.309220754   2.330373075   5.998325399
Fe       2.482363858   3.510600399   0.000000000    0   0   0
Fe       4.137287953   1.170200133   0.000000000    0   0   0
Fe       0.827450906   2.340400266   2.026984232    0   0   0
Fe       2.482375000   0.000000000   2.026984232    0   0   0
Fe       2.482643342   3.509643718   4.027953365
Fe       4.131051492   1.165889566   4.019104933
Fe       0.817103866   2.344385287   5.990858235
Fe       2.481240495  -0.000711117   6.002339702
Fe       6.619662953   1.170200133   0.000000000    0   0   0
Fe       4.964750000   0.000000000   2.026984232    0   0   0
Fe       9.929488858   3.510600399   0.000000000    0   0   0
Fe       8.274575906   2.340400266   2.026984232    0   0   0
Fe       6.624802882   1.165355752   4.012882222
Fe       4.955117745   0.002779359   5.997801082
Fe       9.932112065   3.503070118   4.011180317
Fe       8.282985442   2.328798391   6.089440300
Fe       7.447113858   3.510600399   0.000000000    0   0   0
Fe       9.102037953   1.170200133   0.000000000    0   0   0
Fe       5.792200906   2.340400266   2.026984232    0   0   0
Fe       7.447125000   0.000000000   2.026984232    0   0   0
Fe       7.446897793   3.510237290   4.044322261
Fe       9.094172120   1.179365929   4.054454485
Fe       5.751935846   2.311885372   5.931890818
Fe      10.762271371   9.375839971   5.990647973
Fe       3.309814764   5.851000664   0.000000000    0   0   0
Fe       1.654901811   4.680800531   2.026984232    0   0   0
Fe       6.619640670   8.191400930   0.000000000    0   0   0
Fe       4.964727717   7.021200797   2.026984232    0   0   0
Fe       3.315097430   5.853477695   4.027028988
Fe      11.585872685   4.681998025   5.992658464
Fe       6.616374657   8.187784898   4.022189685
Fe       4.975273207   7.015974134   6.012515678
Fe       4.137265670   8.191400930   0.000000000    0   0   0
Fe       5.792189764   5.851000664   0.000000000    0   0   0
Fe       2.482352717   7.021200797   2.026984232    0   0   0
Fe       4.137276811   4.680800531   2.026984232    0   0   0
Fe       4.135511458   8.190586028   4.024593838
Fe       5.798107401   5.840758628   4.054289650
Fe      12.401501430   7.013933729   6.013909188
Fe       4.152404849   4.681203827   5.990718106
Fe       8.274564764   5.851000664   0.000000000    0   0   0
Fe       6.619651811   4.680800531   2.026984232    0   0   0
Fe      11.584390670   8.191400930   0.000000000    0   0   0
Fe       9.929477717   7.021200797   2.026984232    0   0   0
Fe       8.268446034   5.855897199   4.011150451
Fe       6.611776077   4.691906495   6.089132906
Fe      11.588345354   8.195821586   4.027131831
Fe       9.931300216   7.022143589   5.993325135
Fe       9.102015670   8.191400930   0.000000000    0   0   0
Fe      10.756939764   5.851000664   0.000000000    0   0   0
Fe       7.447102717   7.021200797   2.026984232    0   0   0
Fe       9.102026811   4.680800531   2.026984232    0   0   0
Fe       9.101390537   8.192030953   4.028026919
Fe      10.762801285   5.855206356   4.016850699
Fe       7.447420338   7.010060230   5.990893880
Fe       9.143775428   4.710247491   5.931437143
N        7.447365103   3.510579575   7.473500465
H        8.106772844   3.977755920   8.112545708
H        6.788539158   3.044186998   8.113712404
H        4.544297661   8.479491428   6.936483539

