phonons (vibrational modes) for NH2
 &inputph
  outdir='./'
  prefix='NH2_ESM_p5'
  amass(1)=14.0067
  amass(2)=1.00784
  alpha_mix=0.2
  fildyn='NH2.dync'
  trans=.true.
  diagonalization='cg'
 /
0.0 0.0 0.0