&CONTROL
   calculation      = 'relax'
   prefix           = 'Fe_N_H_paper_480c'
   max_seconds      = 259200
   etot_conv_thr    = 7.34986176e-07
   forc_conv_thr    = 0.0003889379346800142
   disk_io          = 'high'
   pseudo_dir       = '../../SSSP/'
/
&SYSTEM
   ibrav            = 0
   starting_magnetization(1) = 0.1
   starting_magnetization(2) = 0.1
   starting_magnetization(3) = 0.1
   ecutwfc          = 60
   ecutrho          = 480
   nosym            = .true.
   occupations      = 'smearing'
   degauss          = 0.01
   smearing         = 'mp'
   nspin            = 2
   input_dft        = 'pbe'
   starting_ns_eigenvalue(1, 1, 1) = 1.0
   starting_ns_eigenvalue(1, 2, 1) = 1.0
   starting_ns_eigenvalue(2, 1, 1) = 1.0
   starting_ns_eigenvalue(2, 2, 1) = 1.0
   starting_ns_eigenvalue(3, 1, 1) = 1.0
   starting_ns_eigenvalue(3, 2, 1) = 0.0
   starting_ns_eigenvalue(4, 1, 1) = 0.0
   starting_ns_eigenvalue(4, 2, 1) = 0.0
   starting_ns_eigenvalue(5, 1, 1) = 0.0
   starting_ns_eigenvalue(5, 2, 1) = 0.0
   vdw_corr         = 'grimme-d2'
   ntyp             = 3
   nat              = 66
/
&ELECTRONS
   electron_maxstep = 1000
   conv_thr         = 1e-08
   mixing_mode      = 'local-TF'
   mixing_beta      = 0.2
   mixing_ndim      = 10
   diagonalization  = 'david'
   diago_thr_init   = 0.0001
   diago_david_ndim = 4
/
&IONS
/
&CELL
/

ATOMIC_SPECIES
Fe  55.845 Fe.pbe-spn-kjpaw_psl.0.2.1.UPF
N  14.007 N.pbe-n-radius_5.UPF
H  1.008 H.pbe-rrkjus_psl.1.0.0.UPF

K_POINTS automatic
4 4 1  0 0 0

CELL_PARAMETERS angstrom
9.92950018792535 0.00000000000000 0.00000000000000
3.30980029764116 9.36160228367734 0.00000000000000
0.00000000000000 0.00000000000000 26.08059681510041

ATOMIC_POSITIONS angstrom
Fe  1.6549129530 1.1702001330 0.0000000000   0 0 0
Fe  0.0000000000 0.0000000000 2.0269842320   0 0 0
Fe  4.9647388580 3.5106003990 0.0000000000   0 0 0
Fe  3.3098259060 2.3404002660 2.0269842320   0 0 0
Fe  1.6795468320 1.1678029190 4.0280606460  
Fe  3.3356965260 9.3258045560 6.0153995740  
Fe  4.9606800110 3.5336143540 4.0423930110  
Fe  3.3886218990 2.3418647700 6.0229417610  
Fe  2.4823638580 3.5106003990 0.0000000000   0 0 0
Fe  4.1372879530 1.1702001330 0.0000000000   0 0 0
Fe  0.8274509060 2.3404002660 2.0269842320   0 0 0
Fe  2.4823750000 0.0000000000 2.0269842320   0 0 0
Fe  2.4825914860 3.5109195310 4.0458296920  
Fe  4.1619698090 1.1880510720 4.0318149960  
Fe  0.9091593530 2.3051441920 6.0288089590  
Fe  2.5124976290 0.0216231120 6.0234054880  
Fe  6.6196629530 1.1702001330 0.0000000000   0 0 0
Fe  4.9647500000 0.0000000000 2.0269842320   0 0 0
Fe  9.9294888580 3.5106003990 0.0000000000   0 0 0
Fe  8.2745759060 2.3404002660 2.0269842320   0 0 0
Fe  6.6395123560 1.1587540290 4.0420408350  
Fe  4.9920267350 0.0745077440 6.0233505160  
Fe  9.9342423450 3.4884442470 4.0420767250  
Fe  8.4536507440 2.0880337740 5.9780817700  
Fe  7.4471138580 3.5106003990 0.0000000000   0 0 0
Fe  9.1020379530 1.1702001330 0.0000000000   0 0 0
Fe  5.7922009060 2.3404002660 2.0269842320   0 0 0
Fe  7.4471250000 0.0000000000 2.0269842320   0 0 0
Fe  7.4475348090 3.5106594810 4.0547987330  
Fe  9.1315656760 1.1289902220 3.9971579080  
Fe  5.8797830530 2.4023007260 6.0101085780  
Fe  10.7637788300 9.2734227670 6.0287582060  
Fe  3.3098147640 5.8510006640 0.0000000000   0 0 0
Fe  1.6549018110 4.6808005310 2.0269842320   0 0 0
Fe  6.6196406700 8.1914009300 0.0000000000   0 0 0
Fe  4.9647277170 7.0212007970 2.0269842320   0 0 0
Fe  3.2856067580 5.8538582180 4.0282683230  
Fe  11.5060759110 4.6804738150 6.0233665340  
Fe  6.6255194810 8.2155614520 4.0282903050  
Fe  4.9392310630 7.0579846560 6.0163918050  
Fe  4.1372656700 8.1914009300 0.0000000000   0 0 0
Fe  5.7921897640 5.8510006640 0.0000000000   0 0 0
Fe  2.4823527170 7.0212007970 2.0269842320   0 0 0
Fe  4.1372768110 4.6808005310 2.0269842320   0 0 0
Fe  4.1374677360 8.1916570040 4.0162996350  
Fe  5.7629255140 5.8929530640 3.9975165040  
Fe  12.3821631640 7.0006129710 6.0232771430  
Fe  4.0563717740 4.7173401530 6.0293886470  
Fe  8.2745647640 5.8510006640 0.0000000000   0 0 0
Fe  6.6196518110 4.6808005310 2.0269842320   0 0 0
Fe  11.5843906700 8.1914009300 0.0000000000   0 0 0
Fe  9.9294777170 7.0212007970 2.0269842320   0 0 0
Fe  8.2547791230 5.8629067420 4.0424544940  
Fe  6.4414975320 4.9337140470 5.9781071990  
Fe  11.5789465440 8.1677516390 4.0279982360  
Fe  9.9026340470 6.9480534560 6.0229072230  
Fe  9.1020156700 8.1914009300 0.0000000000   0 0 0
Fe  10.7569397640 5.8510006640 0.0000000000   0 0 0
Fe  7.4471027170 7.0212007970 2.0269842320   0 0 0
Fe  9.1020268110 4.6808005310 2.0269842320   0 0 0
Fe  9.1021500880 8.1917138050 4.0458399110  
Fe  10.7324270750 5.8340377000 4.0318400100  
Fe  7.4404023320 7.1103963320 6.0294639910  
Fe  9.0154847070 4.6194948510 6.0102092800  
N  7.4476156260 3.5109118620 6.3539045910  
H  4.5620000000 8.4810000000 6.941998234

