phonons (vibrational modes) for NH2
 &inputph
  outdir='./'
  prefix='NH2_ESM_VA12'
  amass(1)=14.0067
  amass(2)=1.00784
  fildyn='NH2.dync'
  trans=.true.
 /
0.0 0.0 0.0