&CONTROL
   calculation      = 'relax'
   prefix           = 'Fe_NH_paper_480c'
   max_seconds      = 259200
   etot_conv_thr    = 7.34986176e-07
   forc_conv_thr    = 0.0003889379346800142
   disk_io          = 'high'
   pseudo_dir       = '../../SSSP/'
/
&SYSTEM
   ibrav            = 0
   starting_magnetization(1) = 0.1
   starting_magnetization(2) = 0.1
   starting_magnetization(3) = 0.1
   ecutwfc          = 60
   ecutrho          = 480
   nosym            = .true.
   occupations      = 'smearing'
   degauss          = 0.01
   smearing         = 'mp'
   nspin            = 2
   input_dft        = 'pbe'
   starting_ns_eigenvalue(1, 1, 1) = 1.0
   starting_ns_eigenvalue(1, 2, 1) = 1.0
   starting_ns_eigenvalue(2, 1, 1) = 1.0
   starting_ns_eigenvalue(2, 2, 1) = 1.0
   starting_ns_eigenvalue(3, 1, 1) = 1.0
   starting_ns_eigenvalue(3, 2, 1) = 0.0
   starting_ns_eigenvalue(4, 1, 1) = 0.0
   starting_ns_eigenvalue(4, 2, 1) = 0.0
   starting_ns_eigenvalue(5, 1, 1) = 0.0
   starting_ns_eigenvalue(5, 2, 1) = 0.0
   vdw_corr         = 'grimme-d2'
   ntyp             = 3
   nat              = 66
/
&ELECTRONS
   electron_maxstep = 1000
   conv_thr         = 1e-08
   mixing_mode      = 'local-TF'
   mixing_beta      = 0.2
   mixing_ndim      = 10
   diagonalization  = 'david'
   diago_thr_init   = 0.0001
   diago_david_ndim = 4
/
&IONS
/
&CELL
/

ATOMIC_SPECIES
Fe  55.845 Fe.pbe-spn-kjpaw_psl.0.2.1.UPF
H  1.008 H.pbe-rrkjus_psl.1.0.0.UPF
N  14.007 N.pbe-n-radius_5.UPF

K_POINTS automatic
4 4 1  0 0 0

CELL_PARAMETERS angstrom
9.92950000000000 0.00000000000000 0.00000000000000
3.30980362277934 9.36160106282770 0.00000000000000
0.00000000000000 0.00000000000000 26.08060000000000

ATOMIC_POSITIONS angstrom
Fe  1.6549129528 1.1702001329 0.0000000000   0 0 0
Fe  0.0000000000 0.0000000000 2.0269842320   0 0 0
Fe  4.9647388585 3.5106003986 0.0000000000   0 0 0
Fe  3.3098259057 2.3404002657 2.0269842320   0 0 0
Fe  1.6743416704 1.1715107570 4.0218893260  
Fe  3.3185416184 9.3503671416 5.9868017300  
Fe  4.9737084611 3.5250172642 4.0383201040  
Fe  3.3694029226 2.3350641531 6.0021892840  
Fe  2.4823638585 3.5106003986 0.0000000000   0 0 0
Fe  4.1372879528 1.1702001329 0.0000000000   0 0 0
Fe  0.8274509057 2.3404002657 2.0269842320   0 0 0
Fe  2.4823750000 0.0000000000 2.0269842320   0 0 0
Fe  2.4822645600 3.5117237907 4.0385809100  
Fe  4.1617475621 1.1888297190 4.0299743120  
Fe  0.8614760551 2.3206472875 5.9886273720  
Fe  2.4953495104 0.0114211533 5.9987988060  
Fe  6.6196629528 1.1702001329 0.0000000000   0 0 0
Fe  4.9647500000 0.0000000000 2.0269842320   0 0 0
Fe  9.9294888585 3.5106003986 0.0000000000   0 0 0
Fe  8.2745759057 2.3404002657 2.0269842320   0 0 0
Fe  6.6350205620 1.1757234775 4.0385809100  
Fe  4.9773602707 0.0612248710 6.0021892840  
Fe  9.9203537569 3.4985239332 4.0383201040  
Fe  8.3654974279 2.2142058834 5.9672412800  
Fe  7.4471138585 3.5106003986 0.0000000000   0 0 0
Fe  9.1020379528 1.1702001329 0.0000000000   0 0 0
Fe  5.7922009057 2.3404002657 2.0269842320   0 0 0
Fe  7.4471250000 0.0000000000 2.0269842320   0 0 0
Fe  7.4469814610 3.5119110227 3.9942438900  
Fe  9.1213674636 1.1437068018 4.0015464580  
Fe  5.8847767271 2.4087399535 6.0384413180  
Fe  10.7655343065 9.3247163546 5.9886273720  
Fe  3.3098147642 5.8510006643 0.0000000000   0 0 0
Fe  1.6549018114 4.6808005314 2.0269842320   0 0 0
Fe  6.6196406699 8.1914009300 0.0000000000   0 0 0
Fe  4.9647277171 7.0212007971 2.0269842320   0 0 0
Fe  3.2899888596 5.8519368244 4.0218893260  
Fe  11.5243283070 4.6900685165 6.0021892840  
Fe  6.6261609795 8.2109666762 4.0218893260  
Fe  4.9549305629 7.0361793588 5.9873233420  
Fe  4.1372656699 8.1914009300 0.0000000000   0 0 0
Fe  5.7921897642 5.8510006643 0.0000000000   0 0 0
Fe  12.4118527171 7.0212007971 2.0269842320   0 0 0
Fe  4.1372768114 4.6808005314 2.0269842320   0 0 0
Fe  4.1371001753 8.1923370901 4.0187596540  
Fe  5.7723637714 5.8797407795 4.0015464580  
Fe  12.3978190481 7.0135242842 5.9987988060  
Fe  4.1028875685 4.7042981501 5.9883665660  
Fe  8.2745647642 5.8510006643 0.0000000000   0 0 0
Fe  6.6196518114 4.6808005314 2.0269842320   0 0 0
Fe  11.5843906699 8.1914009300 0.0000000000   0 0 0
Fe  9.9294777171 7.0212007971 2.0269842320   0 0 0
Fe  8.2588761632 5.8481921839 4.0383201040  
Fe  6.5285316841 4.8117693303 5.9672412800  
Fe  11.5775062713 8.1741755840 4.0221501320  
Fe  9.9160399723 6.9649375747 6.0019284780  
Fe  9.1020156699 8.1914009300 0.0000000000   0 0 0
Fe  10.7569397642 5.8510006643 0.0000000000   0 0 0
Fe  7.4471027171 7.0212007971 2.0269842320   0 0 0
Fe  9.1020268114 4.6808005314 2.0269842320   0 0 0
Fe  9.1018832724 8.1927115541 4.0385809100  
Fe  10.7322484590 5.8348050944 4.0299743120  
Fe  7.4377357554 7.0632343859 5.9883665660  
Fe  9.0094509712 4.6183586523 6.0373980940  
H  7.4495962157 3.5162173592 8.0109170960  
N  7.4490335473 3.5151875831 6.9796901720  

