&CONTROL
   calculation      = 'relax'
   prefix           = 'Fe_NH2_paper_480c_ESM_pn25'
   max_seconds      = 259200
   etot_conv_thr    = 7.34986176e-07
   forc_conv_thr    = 0.0003889379346800142
   disk_io          = 'high'
   pseudo_dir       = '../../SSSP/'
   !restart_mode     = 'restart'
/
&SYSTEM
   ibrav            = 0
   starting_magnetization(1) = 0.1
   starting_magnetization(2) = 0.1
   starting_magnetization(3) = 0.1
   ecutwfc          = 60
   ecutrho          = 480
   nosym            = .true.
   occupations      = 'smearing'
   degauss          = 0.01
   smearing         = 'mp'
   nspin            = 2
   input_dft        = 'pbe'
   starting_ns_eigenvalue(1, 1, 1) = 1.0
   starting_ns_eigenvalue(1, 2, 1) = 1.0
   starting_ns_eigenvalue(2, 1, 1) = 1.0
   starting_ns_eigenvalue(2, 2, 1) = 1.0
   starting_ns_eigenvalue(3, 1, 1) = 1.0
   starting_ns_eigenvalue(3, 2, 1) = 0.0
   starting_ns_eigenvalue(4, 1, 1) = 0.0
   starting_ns_eigenvalue(4, 2, 1) = 0.0
   starting_ns_eigenvalue(5, 1, 1) = 0.0
   starting_ns_eigenvalue(5, 2, 1) = 0.0
   assume_isolated  = 'esm'
   esm_bc           = 'bc2'
   esm_efield       = -0.0097234527
   vdw_corr         = 'grimme-d2'
   ntyp             = 3
   nat              = 67
/
&ELECTRONS
   electron_maxstep = 1000
   conv_thr         = 1e-08
   mixing_mode      = 'local-TF'
   mixing_beta      = 0.2
   mixing_ndim      = 10
   diagonalization  = 'david'
   diago_thr_init   = 0.0001
   diago_david_ndim = 4
/
&IONS
/
&CELL
/

ATOMIC_SPECIES
Fe  55.845 Fe.pbe-spn-kjpaw_psl.0.2.1.UPF
N  14.007 N.pbe-n-radius_5.UPF
H  1.008 H.pbe-rrkjus_psl.1.0.0.UPF


K_POINTS automatic
4 4 1  0 0 0

CELL_PARAMETERS angstrom
9.92950000000000 0.00000000000000 0.00000000000000
3.30980362277934 9.36160106282770 0.00000000000000
0.00000000000000 0.00000000000000 26.08060000000000

ATOMIC_POSITIONS angstrom
Fe       1.654912953   1.170200133   0.000000000    0   0   0
Fe       0.000000000   0.000000000   2.026984232    0   0   0
Fe       4.964738858   3.510600399   0.000000000    0   0   0
Fe       3.309825906   2.340400266   2.026984232    0   0   0
Fe       1.647770037   1.167819190   4.023212815
Fe       3.303320036   9.371017318   5.998542537
Fe       4.960097019   3.514900755   4.010705947
Fe       3.304236235   2.332322956   5.999869066
Fe       2.482363858   3.510600399   0.000000000    0   0   0
Fe       4.137287953   1.170200133   0.000000000    0   0   0
Fe       0.827450906   2.340400266   2.026984232    0   0   0
Fe       2.482375000   0.000000000   2.026984232    0   0   0
Fe       2.482414520   3.510572659   4.026207714
Fe       4.129574029   1.164762677   4.016972855
Fe       0.814771462   2.344618212   5.988588733
Fe       2.478030357  -0.002896871   6.009576679
Fe       6.619662953   1.170200133   0.000000000    0   0   0
Fe       4.964750000   0.000000000   2.026984232    0   0   0
Fe       9.929488858   3.510600399   0.000000000    0   0   0
Fe       8.274575906   2.340400266   2.026984232    0   0   0
Fe       6.622185824   1.164266576   4.010736009
Fe       4.955347869  -0.002625430   5.999489072
Fe       9.934327364   3.506282268   4.010687607
Fe       8.278997031   2.334599176   6.084677116
Fe       7.447113858   3.510600399   0.000000000    0   0   0
Fe       9.102037953   1.170200133   0.000000000    0   0   0
Fe       5.792200906   2.340400266   2.026984232    0   0   0
Fe       7.447125000   0.000000000   2.026984232    0   0   0
Fe       7.447255421   3.510515070   4.044128109
Fe       9.091282448   1.185440388   4.046663877
Fe       5.742667487   2.305350742   5.928223743
Fe      10.757453181   9.375121963   5.988607349
Fe       3.309814764   5.851000664   0.000000000    0   0   0
Fe       1.654901811   4.680800531   2.026984232    0   0   0
Fe       6.619640670   8.191400930   0.000000000    0   0   0
Fe       4.964727717   7.021200797   2.026984232    0   0   0
Fe       3.316865852   5.853585653   4.023273275
Fe      11.590245913   4.688894356   5.999487215
Fe       6.614870739   8.185749053   4.023246478
Fe       4.970990801   7.012309364   5.998207379
Fe       4.137265670   8.191400930   0.000000000    0   0   0
Fe       5.792189764   5.851000664   0.000000000    0   0   0
Fe       2.482352717   7.021200797   2.026984232    0   0   0
Fe       4.137276811   4.680800531   2.026984232    0   0   0
Fe       4.137078684   8.191735049   4.029197844
Fe       5.802856295   5.836060574   4.046579606
Fe      12.416171013   7.024370672   6.009567057
Fe       4.150283503   4.676762787   5.988888501
Fe       8.274564764   5.851000664   0.000000000    0   0   0
Fe       6.619651811   4.680800531   2.026984232    0   0   0
Fe      11.584390670   8.191400930   0.000000000    0   0   0
Fe       9.929477717   7.021200797   2.026984232    0   0   0
Fe       8.272207329   5.856922015   4.010688772
Fe       6.616034880   4.686346882   6.084337165
Fe      11.589122054   8.197365490   4.023241378
Fe       9.939037112   7.023838758   5.999783481
Fe       9.102015670   8.191400930   0.000000000    0   0   0
Fe      10.756939764   5.851000664   0.000000000    0   0   0
Fe       7.447102717   7.021200797   2.026984232    0   0   0
Fe       9.102026811   4.680800531   2.026984232    0   0   0
Fe       9.102092623   8.191457806   4.026193374
Fe      10.764748896   5.856499462   4.016967947
Fe       7.446577428   7.007897852   5.988728523
Fe       9.151821837   4.715855147   5.928184588
N        7.448461483   3.511422902   7.476383381
H        8.110889189   3.980758889   8.109017889
H        6.786176239   3.042616802   8.109520981

