phonons (vibrational modes) for NH2
 &inputph
  outdir='./'
  prefix='NH2_ESM_pn25'
  amass(1)=14.0067
  amass(2)=1.00784
  fildyn='NH2_pn25.dync'
  trans=.true.
 /
0.0 0.0 0.0