&CONTROL
   calculation      = 'relax'
   prefix           = 'Fe_NH3_paper_480c_ESM_pn5'
   max_seconds      = 259200
   etot_conv_thr    = 7.34986176e-07
   forc_conv_thr    = 0.0003889379346800142
   disk_io          = 'high'
   pseudo_dir       = '../../SSSP/'
   restart_mode     = 'restart'
/
&SYSTEM
   ibrav            = 0
   starting_magnetization(1) = 0.1
   starting_magnetization(2) = 0.1
   starting_magnetization(3) = 0.1
   ecutwfc          = 60
   ecutrho          = 480
   nosym            = .true.
   occupations      = 'smearing'
   degauss          = 0.01
   smearing         = 'mp'
   nspin            = 2
   input_dft        = 'pbe'
   starting_ns_eigenvalue(1, 1, 1) = 1.0
   starting_ns_eigenvalue(1, 2, 1) = 1.0
   starting_ns_eigenvalue(2, 1, 1) = 1.0
   starting_ns_eigenvalue(2, 2, 1) = 1.0
   starting_ns_eigenvalue(3, 1, 1) = 1.0
   starting_ns_eigenvalue(3, 2, 1) = 0.0
   starting_ns_eigenvalue(4, 1, 1) = 0.0
   starting_ns_eigenvalue(4, 2, 1) = 0.0
   starting_ns_eigenvalue(5, 1, 1) = 0.0
   starting_ns_eigenvalue(5, 2, 1) = 0.0
   assume_isolated  = 'esm'
   esm_bc           = 'bc2'
   esm_efield       = -0.0194469054
   vdw_corr         = 'grimme-d2'
   ntyp             = 3
   nat              = 68
/
&ELECTRONS
   electron_maxstep = 1000
   conv_thr         = 1e-08
   mixing_mode      = 'local-TF'
   mixing_beta      = 0.2
   mixing_ndim      = 10
   diagonalization  = 'david'
   diago_thr_init   = 0.0001
   diago_david_ndim = 4
/
&IONS
/
&CELL
/

ATOMIC_SPECIES
Fe  55.845 Fe.pbe-spn-kjpaw_psl.0.2.1.UPF
N  14.007 N.pbe-n-radius_5.UPF
H  1.008 H.pbe-rrkjus_psl.1.0.0.UPF


K_POINTS automatic
4 4 1  0 0 0

CELL_PARAMETERS angstrom
9.92950000000000 0.00000000000000 0.00000000000000
3.30980362277934 9.36160106282770 0.00000000000000
0.00000000000000 0.00000000000000 26.08060000000000

ATOMIC_POSITIONS angstrom
Fe       1.654912953   1.170200133   0.000000000    0   0   0
Fe       0.000000000   0.000000000   2.026984232    0   0   0
Fe       4.964738858   3.510600399   0.000000000    0   0   0
Fe       3.309825906   2.340400266   2.026984232    0   0   0
Fe       1.656389740   1.171174116   4.025048223
Fe       3.310364144   9.361983506   5.995977302
Fe       4.970620690   3.514645316   4.021996766
Fe       3.309461274   2.340207530   5.992359312
Fe       2.482363858   3.510600399   0.000000000    0   0   0
Fe       4.137287953   1.170200133   0.000000000    0   0   0
Fe       0.827450906   2.340400266   2.026984232    0   0   0
Fe       2.482375000   0.000000000   2.026984232    0   0   0
Fe       2.482165519   3.512423781   4.025829355
Fe       4.138997064   1.169381546   4.025964110
Fe       0.826451809   2.345262565   6.006412791
Fe       2.486597384  -0.002728631   6.006484129
Fe       6.619662953   1.170200133   0.000000000    0   0   0
Fe       4.964750000   0.000000000   2.026984232    0   0   0
Fe       9.929488858   3.510600399   0.000000000    0   0   0
Fe       8.274575906   2.340400266   2.026984232    0   0   0
Fe       6.621893727   1.168428530   4.015680838
Fe       4.964248614  -0.002234416   6.019152354
Fe       9.929601422   3.507819688   4.015888041
Fe       8.280137638   2.332034980   5.951354028
Fe       7.447113858   3.510600399   0.000000000    0   0   0
Fe       9.102037953   1.170200133   0.000000000    0   0   0
Fe       5.792200906   2.340400266   2.026984232    0   0   0
Fe       7.447125000   0.000000000   2.026984232    0   0   0
Fe       7.433203387   3.529008979   4.040113427
Fe       9.105601564   1.165239395   4.011927673
Fe       5.794830418   2.330723480   5.970207127
Fe      10.752700487   9.362680122   6.005587624
Fe       3.309814764   5.851000664   0.000000000    0   0   0
Fe       1.654901811   4.680800531   2.026984232    0   0   0
Fe       6.619640670   8.191400930   0.000000000    0   0   0
Fe       4.964727717   7.021200797   2.026984232    0   0   0
Fe       3.308936120   5.853910129   4.015551825
Fe      11.582698920   4.680782310   6.019188439
Fe       6.616905211   8.192507781   4.015783213
Fe       4.959251894   7.028723916   5.952590567
Fe       4.137265670   8.191400930   0.000000000    0   0   0
Fe       5.792189764   5.851000664   0.000000000    0   0   0
Fe       2.482352717   7.021200797   2.026984232    0   0   0
Fe       4.137276811   4.680800531   2.026984232    0   0   0
Fe       4.133832338   8.196398921   4.012111378
Fe       5.804905072   5.831818369   4.039981940
Fe      12.411813406   7.016837271   6.005649360
Fe       4.128825151   4.686400658   5.969266879
Fe       8.274564764   5.851000664   0.000000000    0   0   0
Fe       6.619651811   4.680800531   2.026984232    0   0   0
Fe      11.584390670   8.191400930   0.000000000    0   0   0
Fe       9.929477717   7.021200797   2.026984232    0   0   0
Fe       8.268190105   5.846303618   4.022833841
Fe       6.616619863   4.679772856   6.193462175
Fe      11.582940934   8.190273516   4.024401537
Fe       9.929798139   7.021376911   5.990913994
Fe       9.102015670   8.191400930   0.000000000    0   0   0
Fe      10.756939764   5.851000664   0.000000000    0   0   0
Fe       7.447102717   7.021200797   2.026984232    0   0   0
Fe       9.102026811   4.680800531   2.026984232    0   0   0
Fe       9.099875892   8.191452244   4.025442205
Fe      10.756318334   5.848831190   4.025585167
Fe       7.443141059   7.028298754   5.971294430
Fe       9.107227956   4.674299029   5.972310912
N        6.624306256   4.680605367   8.264647144
H        6.602270267   5.631494073   8.642087524
H        5.803317385   4.187092667   8.625736008
H        7.454077834   4.213126742   8.638890289

